p cnf 84 2841
-1 -43 0
-2 -44 0
-3 -45 0
-4 -46 0
-5 -47 0
-6 -48 0
-7 -49 0
-8 -50 0
-9 -51 0
-10 -52 0
-11 -53 0
-12 -54 0
-13 -55 0
-14 -56 0
-15 -57 0
-16 -58 0
-17 -59 0
-18 -60 0
-19 -61 0
-20 -62 0
-21 -63 0
-22 -64 0
-23 -65 0
-24 -66 0
-25 -67 0
-26 -68 0
-27 -69 0
-28 -70 0
-29 -71 0
-30 -72 0
-31 -73 0
-32 -74 0
-33 -75 0
-34 -76 0
-35 -77 0
-36 -78 0
-37 -79 0
-38 -80 0
-39 -81 0
-40 -82 0
-41 -83 0
-42 -84 0
-2 0
-44 0
-3 0
-45 0
-4 0
-46 0
-1 -7 0
-1 -8 0
-1 -9 0
-1 -13 0
-1 -14 0
-1 -15 0
-1 -43 0
-1 -49 0
-1 -50 0
-1 -51 0
-1 -55 0
-1 -56 0
-1 -57 0
-7 -8 0
-7 -9 0
-7 -13 0
-7 -14 0
-7 -15 0
-7 -43 0
-7 -49 0
-7 -50 0
-7 -51 0
-7 -55 0
-7 -56 0
-7 -57 0
-8 -9 0
-8 -13 0
-8 -14 0
-8 -15 0
-8 -43 0
-8 -49 0
-8 -50 0
-8 -51 0
-8 -55 0
-8 -56 0
-8 -57 0
-9 -13 0
-9 -14 0
-9 -15 0
-9 -43 0
-9 -49 0
-9 -50 0
-9 -51 0
-9 -55 0
-9 -56 0
-9 -57 0
-13 -14 0
-13 -15 0
-13 -43 0
-13 -49 0
-13 -50 0
-13 -51 0
-13 -55 0
-13 -56 0
-13 -57 0
-14 -15 0
-14 -43 0
-14 -49 0
-14 -50 0
-14 -51 0
-14 -55 0
-14 -56 0
-14 -57 0
-15 -43 0
-15 -49 0
-15 -50 0
-15 -51 0
-15 -55 0
-15 -56 0
-15 -57 0
-43 -49 0
-43 -50 0
-43 -51 0
-43 -55 0
-43 -56 0
-43 -57 0
-49 -50 0
-49 -51 0
-49 -55 0
-49 -56 0
-49 -57 0
-50 -51 0
-50 -55 0
-50 -56 0
-50 -57 0
-51 -55 0
-51 -56 0
-51 -57 0
-55 -56 0
-55 -57 0
-56 -57 0
1 7 8 9 13 14 15 43 49 50 51 55 56 57 0
-43 0
-1 0
-7 0
-49 0
-13 0
-55 0
-8 -9 -14 0
-8 -9 -15 0
-8 -9 -19 0
-8 -9 -20 0
-8 -9 -21 0
-8 -9 -50 0
-8 -9 -51 0
-8 -9 -56 0
-8 -9 -57 0
-8 -9 -61 0
-8 -9 -62 0
-8 -9 -63 0
-8 -14 -15 0
-8 -14 -19 0
-8 -14 -20 0
-8 -14 -21 0
-8 -14 -50 0
-8 -14 -51 0
-8 -14 -56 0
-8 -14 -57 0
-8 -14 -61 0
-8 -14 -62 0
-8 -14 -63 0
-8 -15 -19 0
-8 -15 -20 0
-8 -15 -21 0
-8 -15 -50 0
-8 -15 -51 0
-8 -15 -56 0
-8 -15 -57 0
-8 -15 -61 0
-8 -15 -62 0
-8 -15 -63 0
-8 -19 -20 0
-8 -19 -21 0
-8 -19 -50 0
-8 -19 -51 0
-8 -19 -56 0
-8 -19 -57 0
-8 -19 -61 0
-8 -19 -62 0
-8 -19 -63 0
-8 -20 -21 0
-8 -20 -50 0
-8 -20 -51 0
-8 -20 -56 0
-8 -20 -57 0
-8 -20 -61 0
-8 -20 -62 0
-8 -20 -63 0
-8 -21 -50 0
-8 -21 -51 0
-8 -21 -56 0
-8 -21 -57 0
-8 -21 -61 0
-8 -21 -62 0
-8 -21 -63 0
-8 -50 -51 0
-8 -50 -56 0
-8 -50 -57 0
-8 -50 -61 0
-8 -50 -62 0
-8 -50 -63 0
-8 -51 -56 0
-8 -51 -57 0
-8 -51 -61 0
-8 -51 -62 0
-8 -51 -63 0
-8 -56 -57 0
-8 -56 -61 0
-8 -56 -62 0
-8 -56 -63 0
-8 -57 -61 0
-8 -57 -62 0
-8 -57 -63 0
-8 -61 -62 0
-8 -61 -63 0
-8 -62 -63 0
-9 -14 -15 0
-9 -14 -19 0
-9 -14 -20 0
-9 -14 -21 0
-9 -14 -50 0
-9 -14 -51 0
-9 -14 -56 0
-9 -14 -57 0
-9 -14 -61 0
-9 -14 -62 0
-9 -14 -63 0
-9 -15 -19 0
-9 -15 -20 0
-9 -15 -21 0
-9 -15 -50 0
-9 -15 -51 0
-9 -15 -56 0
-9 -15 -57 0
-9 -15 -61 0
-9 -15 -62 0
-9 -15 -63 0
-9 -19 -20 0
-9 -19 -21 0
-9 -19 -50 0
-9 -19 -51 0
-9 -19 -56 0
-9 -19 -57 0
-9 -19 -61 0
-9 -19 -62 0
-9 -19 -63 0
-9 -20 -21 0
-9 -20 -50 0
-9 -20 -51 0
-9 -20 -56 0
-9 -20 -57 0
-9 -20 -61 0
-9 -20 -62 0
-9 -20 -63 0
-9 -21 -50 0
-9 -21 -51 0
-9 -21 -56 0
-9 -21 -57 0
-9 -21 -61 0
-9 -21 -62 0
-9 -21 -63 0
-9 -50 -51 0
-9 -50 -56 0
-9 -50 -57 0
-9 -50 -61 0
-9 -50 -62 0
-9 -50 -63 0
-9 -51 -56 0
-9 -51 -57 0
-9 -51 -61 0
-9 -51 -62 0
-9 -51 -63 0
-9 -56 -57 0
-9 -56 -61 0
-9 -56 -62 0
-9 -56 -63 0
-9 -57 -61 0
-9 -57 -62 0
-9 -57 -63 0
-9 -61 -62 0
-9 -61 -63 0
-9 -62 -63 0
-14 -15 -19 0
-14 -15 -20 0
-14 -15 -21 0
-14 -15 -50 0
-14 -15 -51 0
-14 -15 -56 0
-14 -15 -57 0
-14 -15 -61 0
-14 -15 -62 0
-14 -15 -63 0
-14 -19 -20 0
-14 -19 -21 0
-14 -19 -50 0
-14 -19 -51 0
-14 -19 -56 0
-14 -19 -57 0
-14 -19 -61 0
-14 -19 -62 0
-14 -19 -63 0
-14 -20 -21 0
-14 -20 -50 0
-14 -20 -51 0
-14 -20 -56 0
-14 -20 -57 0
-14 -20 -61 0
-14 -20 -62 0
-14 -20 -63 0
-14 -21 -50 0
-14 -21 -51 0
-14 -21 -56 0
-14 -21 -57 0
-14 -21 -61 0
-14 -21 -62 0
-14 -21 -63 0
-14 -50 -51 0
-14 -50 -56 0
-14 -50 -57 0
-14 -50 -61 0
-14 -50 -62 0
-14 -50 -63 0
-14 -51 -56 0
-14 -51 -57 0
-14 -51 -61 0
-14 -51 -62 0
-14 -51 -63 0
-14 -56 -57 0
-14 -56 -61 0
-14 -56 -62 0
-14 -56 -63 0
-14 -57 -61 0
-14 -57 -62 0
-14 -57 -63 0
-14 -61 -62 0
-14 -61 -63 0
-14 -62 -63 0
-15 -19 -20 0
-15 -19 -21 0
-15 -19 -50 0
-15 -19 -51 0
-15 -19 -56 0
-15 -19 -57 0
-15 -19 -61 0
-15 -19 -62 0
-15 -19 -63 0
-15 -20 -21 0
-15 -20 -50 0
-15 -20 -51 0
-15 -20 -56 0
-15 -20 -57 0
-15 -20 -61 0
-15 -20 -62 0
-15 -20 -63 0
-15 -21 -50 0
-15 -21 -51 0
-15 -21 -56 0
-15 -21 -57 0
-15 -21 -61 0
-15 -21 -62 0
-15 -21 -63 0
-15 -50 -51 0
-15 -50 -56 0
-15 -50 -57 0
-15 -50 -61 0
-15 -50 -62 0
-15 -50 -63 0
-15 -51 -56 0
-15 -51 -57 0
-15 -51 -61 0
-15 -51 -62 0
-15 -51 -63 0
-15 -56 -57 0
-15 -56 -61 0
-15 -56 -62 0
-15 -56 -63 0
-15 -57 -61 0
-15 -57 -62 0
-15 -57 -63 0
-15 -61 -62 0
-15 -61 -63 0
-15 -62 -63 0
-19 -20 -21 0
-19 -20 -50 0
-19 -20 -51 0
-19 -20 -56 0
-19 -20 -57 0
-19 -20 -61 0
-19 -20 -62 0
-19 -20 -63 0
-19 -21 -50 0
-19 -21 -51 0
-19 -21 -56 0
-19 -21 -57 0
-19 -21 -61 0
-19 -21 -62 0
-19 -21 -63 0
-19 -50 -51 0
-19 -50 -56 0
-19 -50 -57 0
-19 -50 -61 0
-19 -50 -62 0
-19 -50 -63 0
-19 -51 -56 0
-19 -51 -57 0
-19 -51 -61 0
-19 -51 -62 0
-19 -51 -63 0
-19 -56 -57 0
-19 -56 -61 0
-19 -56 -62 0
-19 -56 -63 0
-19 -57 -61 0
-19 -57 -62 0
-19 -57 -63 0
-19 -61 -62 0
-19 -61 -63 0
-19 -62 -63 0
-20 -21 -50 0
-20 -21 -51 0
-20 -21 -56 0
-20 -21 -57 0
-20 -21 -61 0
-20 -21 -62 0
-20 -21 -63 0
-20 -50 -51 0
-20 -50 -56 0
-20 -50 -57 0
-20 -50 -61 0
-20 -50 -62 0
-20 -50 -63 0
-20 -51 -56 0
-20 -51 -57 0
-20 -51 -61 0
-20 -51 -62 0
-20 -51 -63 0
-20 -56 -57 0
-20 -56 -61 0
-20 -56 -62 0
-20 -56 -63 0
-20 -57 -61 0
-20 -57 -62 0
-20 -57 -63 0
-20 -61 -62 0
-20 -61 -63 0
-20 -62 -63 0
-21 -50 -51 0
-21 -50 -56 0
-21 -50 -57 0
-21 -50 -61 0
-21 -50 -62 0
-21 -50 -63 0
-21 -51 -56 0
-21 -51 -57 0
-21 -51 -61 0
-21 -51 -62 0
-21 -51 -63 0
-21 -56 -57 0
-21 -56 -61 0
-21 -56 -62 0
-21 -56 -63 0
-21 -57 -61 0
-21 -57 -62 0
-21 -57 -63 0
-21 -61 -62 0
-21 -61 -63 0
-21 -62 -63 0
-50 -51 -56 0
-50 -51 -57 0
-50 -51 -61 0
-50 -51 -62 0
-50 -51 -63 0
-50 -56 -57 0
-50 -56 -61 0
-50 -56 -62 0
-50 -56 -63 0
-50 -57 -61 0
-50 -57 -62 0
-50 -57 -63 0
-50 -61 -62 0
-50 -61 -63 0
-50 -62 -63 0
-51 -56 -57 0
-51 -56 -61 0
-51 -56 -62 0
-51 -56 -63 0
-51 -57 -61 0
-51 -57 -62 0
-51 -57 -63 0
-51 -61 -62 0
-51 -61 -63 0
-51 -62 -63 0
-56 -57 -61 0
-56 -57 -62 0
-56 -57 -63 0
-56 -61 -62 0
-56 -61 -63 0
-56 -62 -63 0
-57 -61 -62 0
-57 -61 -63 0
-57 -62 -63 0
-61 -62 -63 0
8 9 14 15 19 20 21 50 51 56 57 61 62 0
8 9 14 15 19 20 21 50 51 56 57 61 63 0
8 9 14 15 19 20 21 50 51 56 57 62 63 0
8 9 14 15 19 20 21 50 51 56 61 62 63 0
8 9 14 15 19 20 21 50 51 57 61 62 63 0
8 9 14 15 19 20 21 50 56 57 61 62 63 0
8 9 14 15 19 20 21 51 56 57 61 62 63 0
8 9 14 15 19 20 50 51 56 57 61 62 63 0
8 9 14 15 19 21 50 51 56 57 61 62 63 0
8 9 14 15 20 21 50 51 56 57 61 62 63 0
8 9 14 19 20 21 50 51 56 57 61 62 63 0
8 9 15 19 20 21 50 51 56 57 61 62 63 0
8 14 15 19 20 21 50 51 56 57 61 62 63 0
9 14 15 19 20 21 50 51 56 57 61 62 63 0
-8 0
-50 0
-9 0
-51 0
-10 -14 -15 0
-10 -14 -16 0
-10 -14 -19 0
-10 -14 -20 0
-10 -14 -21 0
-10 -14 -22 0
-10 -14 -52 0
-10 -14 -56 0
-10 -14 -57 0
-10 -14 -58 0
-10 -14 -61 0
-10 -14 -62 0
-10 -14 -63 0
-10 -14 -64 0
-10 -15 -16 0
-10 -15 -19 0
-10 -15 -20 0
-10 -15 -21 0
-10 -15 -22 0
-10 -15 -52 0
-10 -15 -56 0
-10 -15 -57 0
-10 -15 -58 0
-10 -15 -61 0
-10 -15 -62 0
-10 -15 -63 0
-10 -15 -64 0
-10 -16 -19 0
-10 -16 -20 0
-10 -16 -21 0
-10 -16 -22 0
-10 -16 -52 0
-10 -16 -56 0
-10 -16 -57 0
-10 -16 -58 0
-10 -16 -61 0
-10 -16 -62 0
-10 -16 -63 0
-10 -16 -64 0
-10 -19 -20 0
-10 -19 -21 0
-10 -19 -22 0
-10 -19 -52 0
-10 -19 -56 0
-10 -19 -57 0
-10 -19 -58 0
-10 -19 -61 0
-10 -19 -62 0
-10 -19 -63 0
-10 -19 -64 0
-10 -20 -21 0
-10 -20 -22 0
-10 -20 -52 0
-10 -20 -56 0
-10 -20 -57 0
-10 -20 -58 0
-10 -20 -61 0
-10 -20 -62 0
-10 -20 -63 0
-10 -20 -64 0
-10 -21 -22 0
-10 -21 -52 0
-10 -21 -56 0
-10 -21 -57 0
-10 -21 -58 0
-10 -21 -61 0
-10 -21 -62 0
-10 -21 -63 0
-10 -21 -64 0
-10 -22 -52 0
-10 -22 -56 0
-10 -22 -57 0
-10 -22 -58 0
-10 -22 -61 0
-10 -22 -62 0
-10 -22 -63 0
-10 -22 -64 0
-10 -52 -56 0
-10 -52 -57 0
-10 -52 -58 0
-10 -52 -61 0
-10 -52 -62 0
-10 -52 -63 0
-10 -52 -64 0
-10 -56 -57 0
-10 -56 -58 0
-10 -56 -61 0
-10 -56 -62 0
-10 -56 -63 0
-10 -56 -64 0
-10 -57 -58 0
-10 -57 -61 0
-10 -57 -62 0
-10 -57 -63 0
-10 -57 -64 0
-10 -58 -61 0
-10 -58 -62 0
-10 -58 -63 0
-10 -58 -64 0
-10 -61 -62 0
-10 -61 -63 0
-10 -61 -64 0
-10 -62 -63 0
-10 -62 -64 0
-10 -63 -64 0
-14 -15 -16 0
-14 -15 -19 0
-14 -15 -20 0
-14 -15 -21 0
-14 -15 -22 0
-14 -15 -52 0
-14 -15 -56 0
-14 -15 -57 0
-14 -15 -58 0
-14 -15 -61 0
-14 -15 -62 0
-14 -15 -63 0
-14 -15 -64 0
-14 -16 -19 0
-14 -16 -20 0
-14 -16 -21 0
-14 -16 -22 0
-14 -16 -52 0
-14 -16 -56 0
-14 -16 -57 0
-14 -16 -58 0
-14 -16 -61 0
-14 -16 -62 0
-14 -16 -63 0
-14 -16 -64 0
-14 -19 -20 0
-14 -19 -21 0
-14 -19 -22 0
-14 -19 -52 0
-14 -19 -56 0
-14 -19 -57 0
-14 -19 -58 0
-14 -19 -61 0
-14 -19 -62 0
-14 -19 -63 0
-14 -19 -64 0
-14 -20 -21 0
-14 -20 -22 0
-14 -20 -52 0
-14 -20 -56 0
-14 -20 -57 0
-14 -20 -58 0
-14 -20 -61 0
-14 -20 -62 0
-14 -20 -63 0
-14 -20 -64 0
-14 -21 -22 0
-14 -21 -52 0
-14 -21 -56 0
-14 -21 -57 0
-14 -21 -58 0
-14 -21 -61 0
-14 -21 -62 0
-14 -21 -63 0
-14 -21 -64 0
-14 -22 -52 0
-14 -22 -56 0
-14 -22 -57 0
-14 -22 -58 0
-14 -22 -61 0
-14 -22 -62 0
-14 -22 -63 0
-14 -22 -64 0
-14 -52 -56 0
-14 -52 -57 0
-14 -52 -58 0
-14 -52 -61 0
-14 -52 -62 0
-14 -52 -63 0
-14 -52 -64 0
-14 -56 -57 0
-14 -56 -58 0
-14 -56 -61 0
-14 -56 -62 0
-14 -56 -63 0
-14 -56 -64 0
-14 -57 -58 0
-14 -57 -61 0
-14 -57 -62 0
-14 -57 -63 0
-14 -57 -64 0
-14 -58 -61 0
-14 -58 -62 0
-14 -58 -63 0
-14 -58 -64 0
-14 -61 -62 0
-14 -61 -63 0
-14 -61 -64 0
-14 -62 -63 0
-14 -62 -64 0
-14 -63 -64 0
-15 -16 -19 0
-15 -16 -20 0
-15 -16 -21 0
-15 -16 -22 0
-15 -16 -52 0
-15 -16 -56 0
-15 -16 -57 0
-15 -16 -58 0
-15 -16 -61 0
-15 -16 -62 0
-15 -16 -63 0
-15 -16 -64 0
-15 -19 -20 0
-15 -19 -21 0
-15 -19 -22 0
-15 -19 -52 0
-15 -19 -56 0
-15 -19 -57 0
-15 -19 -58 0
-15 -19 -61 0
-15 -19 -62 0
-15 -19 -63 0
-15 -19 -64 0
-15 -20 -21 0
-15 -20 -22 0
-15 -20 -52 0
-15 -20 -56 0
-15 -20 -57 0
-15 -20 -58 0
-15 -20 -61 0
-15 -20 -62 0
-15 -20 -63 0
-15 -20 -64 0
-15 -21 -22 0
-15 -21 -52 0
-15 -21 -56 0
-15 -21 -57 0
-15 -21 -58 0
-15 -21 -61 0
-15 -21 -62 0
-15 -21 -63 0
-15 -21 -64 0
-15 -22 -52 0
-15 -22 -56 0
-15 -22 -57 0
-15 -22 -58 0
-15 -22 -61 0
-15 -22 -62 0
-15 -22 -63 0
-15 -22 -64 0
-15 -52 -56 0
-15 -52 -57 0
-15 -52 -58 0
-15 -52 -61 0
-15 -52 -62 0
-15 -52 -63 0
-15 -52 -64 0
-15 -56 -57 0
-15 -56 -58 0
-15 -56 -61 0
-15 -56 -62 0
-15 -56 -63 0
-15 -56 -64 0
-15 -57 -58 0
-15 -57 -61 0
-15 -57 -62 0
-15 -57 -63 0
-15 -57 -64 0
-15 -58 -61 0
-15 -58 -62 0
-15 -58 -63 0
-15 -58 -64 0
-15 -61 -62 0
-15 -61 -63 0
-15 -61 -64 0
-15 -62 -63 0
-15 -62 -64 0
-15 -63 -64 0
-16 -19 -20 0
-16 -19 -21 0
-16 -19 -22 0
-16 -19 -52 0
-16 -19 -56 0
-16 -19 -57 0
-16 -19 -58 0
-16 -19 -61 0
-16 -19 -62 0
-16 -19 -63 0
-16 -19 -64 0
-16 -20 -21 0
-16 -20 -22 0
-16 -20 -52 0
-16 -20 -56 0
-16 -20 -57 0
-16 -20 -58 0
-16 -20 -61 0
-16 -20 -62 0
-16 -20 -63 0
-16 -20 -64 0
-16 -21 -22 0
-16 -21 -52 0
-16 -21 -56 0
-16 -21 -57 0
-16 -21 -58 0
-16 -21 -61 0
-16 -21 -62 0
-16 -21 -63 0
-16 -21 -64 0
-16 -22 -52 0
-16 -22 -56 0
-16 -22 -57 0
-16 -22 -58 0
-16 -22 -61 0
-16 -22 -62 0
-16 -22 -63 0
-16 -22 -64 0
-16 -52 -56 0
-16 -52 -57 0
-16 -52 -58 0
-16 -52 -61 0
-16 -52 -62 0
-16 -52 -63 0
-16 -52 -64 0
-16 -56 -57 0
-16 -56 -58 0
-16 -56 -61 0
-16 -56 -62 0
-16 -56 -63 0
-16 -56 -64 0
-16 -57 -58 0
-16 -57 -61 0
-16 -57 -62 0
-16 -57 -63 0
-16 -57 -64 0
-16 -58 -61 0
-16 -58 -62 0
-16 -58 -63 0
-16 -58 -64 0
-16 -61 -62 0
-16 -61 -63 0
-16 -61 -64 0
-16 -62 -63 0
-16 -62 -64 0
-16 -63 -64 0
-19 -20 -21 0
-19 -20 -22 0
-19 -20 -52 0
-19 -20 -56 0
-19 -20 -57 0
-19 -20 -58 0
-19 -20 -61 0
-19 -20 -62 0
-19 -20 -63 0
-19 -20 -64 0
-19 -21 -22 0
-19 -21 -52 0
-19 -21 -56 0
-19 -21 -57 0
-19 -21 -58 0
-19 -21 -61 0
-19 -21 -62 0
-19 -21 -63 0
-19 -21 -64 0
-19 -22 -52 0
-19 -22 -56 0
-19 -22 -57 0
-19 -22 -58 0
-19 -22 -61 0
-19 -22 -62 0
-19 -22 -63 0
-19 -22 -64 0
-19 -52 -56 0
-19 -52 -57 0
-19 -52 -58 0
-19 -52 -61 0
-19 -52 -62 0
-19 -52 -63 0
-19 -52 -64 0
-19 -56 -57 0
-19 -56 -58 0
-19 -56 -61 0
-19 -56 -62 0
-19 -56 -63 0
-19 -56 -64 0
-19 -57 -58 0
-19 -57 -61 0
-19 -57 -62 0
-19 -57 -63 0
-19 -57 -64 0
-19 -58 -61 0
-19 -58 -62 0
-19 -58 -63 0
-19 -58 -64 0
-19 -61 -62 0
-19 -61 -63 0
-19 -61 -64 0
-19 -62 -63 0
-19 -62 -64 0
-19 -63 -64 0
-20 -21 -22 0
-20 -21 -52 0
-20 -21 -56 0
-20 -21 -57 0
-20 -21 -58 0
-20 -21 -61 0
-20 -21 -62 0
-20 -21 -63 0
-20 -21 -64 0
-20 -22 -52 0
-20 -22 -56 0
-20 -22 -57 0
-20 -22 -58 0
-20 -22 -61 0
-20 -22 -62 0
-20 -22 -63 0
-20 -22 -64 0
-20 -52 -56 0
-20 -52 -57 0
-20 -52 -58 0
-20 -52 -61 0
-20 -52 -62 0
-20 -52 -63 0
-20 -52 -64 0
-20 -56 -57 0
-20 -56 -58 0
-20 -56 -61 0
-20 -56 -62 0
-20 -56 -63 0
-20 -56 -64 0
-20 -57 -58 0
-20 -57 -61 0
-20 -57 -62 0
-20 -57 -63 0
-20 -57 -64 0
-20 -58 -61 0
-20 -58 -62 0
-20 -58 -63 0
-20 -58 -64 0
-20 -61 -62 0
-20 -61 -63 0
-20 -61 -64 0
-20 -62 -63 0
-20 -62 -64 0
-20 -63 -64 0
-21 -22 -52 0
-21 -22 -56 0
-21 -22 -57 0
-21 -22 -58 0
-21 -22 -61 0
-21 -22 -62 0
-21 -22 -63 0
-21 -22 -64 0
-21 -52 -56 0
-21 -52 -57 0
-21 -52 -58 0
-21 -52 -61 0
-21 -52 -62 0
-21 -52 -63 0
-21 -52 -64 0
-21 -56 -57 0
-21 -56 -58 0
-21 -56 -61 0
-21 -56 -62 0
-21 -56 -63 0
-21 -56 -64 0
-21 -57 -58 0
-21 -57 -61 0
-21 -57 -62 0
-21 -57 -63 0
-21 -57 -64 0
-21 -58 -61 0
-21 -58 -62 0
-21 -58 -63 0
-21 -58 -64 0
-21 -61 -62 0
-21 -61 -63 0
-21 -61 -64 0
-21 -62 -63 0
-21 -62 -64 0
-21 -63 -64 0
-22 -52 -56 0
-22 -52 -57 0
-22 -52 -58 0
-22 -52 -61 0
-22 -52 -62 0
-22 -52 -63 0
-22 -52 -64 0
-22 -56 -57 0
-22 -56 -58 0
-22 -56 -61 0
-22 -56 -62 0
-22 -56 -63 0
-22 -56 -64 0
-22 -57 -58 0
-22 -57 -61 0
-22 -57 -62 0
-22 -57 -63 0
-22 -57 -64 0
-22 -58 -61 0
-22 -58 -62 0
-22 -58 -63 0
-22 -58 -64 0
-22 -61 -62 0
-22 -61 -63 0
-22 -61 -64 0
-22 -62 -63 0
-22 -62 -64 0
-22 -63 -64 0
-52 -56 -57 0
-52 -56 -58 0
-52 -56 -61 0
-52 -56 -62 0
-52 -56 -63 0
-52 -56 -64 0
-52 -57 -58 0
-52 -57 -61 0
-52 -57 -62 0
-52 -57 -63 0
-52 -57 -64 0
-52 -58 -61 0
-52 -58 -62 0
-52 -58 -63 0
-52 -58 -64 0
-52 -61 -62 0
-52 -61 -63 0
-52 -61 -64 0
-52 -62 -63 0
-52 -62 -64 0
-52 -63 -64 0
-56 -57 -58 0
-56 -57 -61 0
-56 -57 -62 0
-56 -57 -63 0
-56 -57 -64 0
-56 -58 -61 0
-56 -58 -62 0
-56 -58 -63 0
-56 -58 -64 0
-56 -61 -62 0
-56 -61 -63 0
-56 -61 -64 0
-56 -62 -63 0
-56 -62 -64 0
-56 -63 -64 0
-57 -58 -61 0
-57 -58 -62 0
-57 -58 -63 0
-57 -58 -64 0
-57 -61 -62 0
-57 -61 -63 0
-57 -61 -64 0
-57 -62 -63 0
-57 -62 -64 0
-57 -63 -64 0
-58 -61 -62 0
-58 -61 -63 0
-58 -61 -64 0
-58 -62 -63 0
-58 -62 -64 0
-58 -63 -64 0
-61 -62 -63 0
-61 -62 -64 0
-61 -63 -64 0
-62 -63 -64 0
10 14 15 16 19 20 21 22 52 56 57 58 61 62 63 0
10 14 15 16 19 20 21 22 52 56 57 58 61 62 64 0
10 14 15 16 19 20 21 22 52 56 57 58 61 63 64 0
10 14 15 16 19 20 21 22 52 56 57 58 62 63 64 0
10 14 15 16 19 20 21 22 52 56 57 61 62 63 64 0
10 14 15 16 19 20 21 22 52 56 58 61 62 63 64 0
10 14 15 16 19 20 21 22 52 57 58 61 62 63 64 0
10 14 15 16 19 20 21 22 56 57 58 61 62 63 64 0
10 14 15 16 19 20 21 52 56 57 58 61 62 63 64 0
10 14 15 16 19 20 22 52 56 57 58 61 62 63 64 0
10 14 15 16 19 21 22 52 56 57 58 61 62 63 64 0
10 14 15 16 20 21 22 52 56 57 58 61 62 63 64 0
10 14 15 19 20 21 22 52 56 57 58 61 62 63 64 0
10 14 16 19 20 21 22 52 56 57 58 61 62 63 64 0
10 15 16 19 20 21 22 52 56 57 58 61 62 63 64 0
14 15 16 19 20 21 22 52 56 57 58 61 62 63 64 0
-14 0
-56 0
-20 0
-62 0
-26 0
-68 0
-58 0
32 0
-10 -15 -16 0
-10 -15 -19 0
-10 -15 -21 0
-10 -15 -22 0
-10 -15 -25 0
-10 -15 -27 0
-10 -15 -28 0
-10 -15 -52 0
-10 -15 -57 0
-10 -15 -58 0
-10 -15 -61 0
-10 -15 -63 0
-10 -15 -64 0
-10 -15 -67 0
-10 -15 -69 0
-10 -15 -70 0
-10 -16 -19 0
-10 -16 -21 0
-10 -16 -22 0
-10 -16 -25 0
-10 -16 -27 0
-10 -16 -28 0
-10 -16 -52 0
-10 -16 -57 0
-10 -16 -58 0
-10 -16 -61 0
-10 -16 -63 0
-10 -16 -64 0
-10 -16 -67 0
-10 -16 -69 0
-10 -16 -70 0
-10 -19 -21 0
-10 -19 -22 0
-10 -19 -25 0
-10 -19 -27 0
-10 -19 -28 0
-10 -19 -52 0
-10 -19 -57 0
-10 -19 -58 0
-10 -19 -61 0
-10 -19 -63 0
-10 -19 -64 0
-10 -19 -67 0
-10 -19 -69 0
-10 -19 -70 0
-10 -21 -22 0
-10 -21 -25 0
-10 -21 -27 0
-10 -21 -28 0
-10 -21 -52 0
-10 -21 -57 0
-10 -21 -58 0
-10 -21 -61 0
-10 -21 -63 0
-10 -21 -64 0
-10 -21 -67 0
-10 -21 -69 0
-10 -21 -70 0
-10 -22 -25 0
-10 -22 -27 0
-10 -22 -28 0
-10 -22 -52 0
-10 -22 -57 0
-10 -22 -58 0
-10 -22 -61 0
-10 -22 -63 0
-10 -22 -64 0
-10 -22 -67 0
-10 -22 -69 0
-10 -22 -70 0
-10 -25 -27 0
-10 -25 -28 0
-10 -25 -52 0
-10 -25 -57 0
-10 -25 -58 0
-10 -25 -61 0
-10 -25 -63 0
-10 -25 -64 0
-10 -25 -67 0
-10 -25 -69 0
-10 -25 -70 0
-10 -27 -28 0
-10 -27 -52 0
-10 -27 -57 0
-10 -27 -58 0
-10 -27 -61 0
-10 -27 -63 0
-10 -27 -64 0
-10 -27 -67 0
-10 -27 -69 0
-10 -27 -70 0
-10 -28 -52 0
-10 -28 -57 0
-10 -28 -58 0
-10 -28 -61 0
-10 -28 -63 0
-10 -28 -64 0
-10 -28 -67 0
-10 -28 -69 0
-10 -28 -70 0
-10 -52 -57 0
-10 -52 -58 0
-10 -52 -61 0
-10 -52 -63 0
-10 -52 -64 0
-10 -52 -67 0
-10 -52 -69 0
-10 -52 -70 0
-10 -57 -58 0
-10 -57 -61 0
-10 -57 -63 0
-10 -57 -64 0
-10 -57 -67 0
-10 -57 -69 0
-10 -57 -70 0
-10 -58 -61 0
-10 -58 -63 0
-10 -58 -64 0
-10 -58 -67 0
-10 -58 -69 0
-10 -58 -70 0
-10 -61 -63 0
-10 -61 -64 0
-10 -61 -67 0
-10 -61 -69 0
-10 -61 -70 0
-10 -63 -64 0
-10 -63 -67 0
-10 -63 -69 0
-10 -63 -70 0
-10 -64 -67 0
-10 -64 -69 0
-10 -64 -70 0
-10 -67 -69 0
-10 -67 -70 0
-10 -69 -70 0
-15 -16 -19 0
-15 -16 -21 0
-15 -16 -22 0
-15 -16 -25 0
-15 -16 -27 0
-15 -16 -28 0
-15 -16 -52 0
-15 -16 -57 0
-15 -16 -58 0
-15 -16 -61 0
-15 -16 -63 0
-15 -16 -64 0
-15 -16 -67 0
-15 -16 -69 0
-15 -16 -70 0
-15 -19 -21 0
-15 -19 -22 0
-15 -19 -25 0
-15 -19 -27 0
-15 -19 -28 0
-15 -19 -52 0
-15 -19 -57 0
-15 -19 -58 0
-15 -19 -61 0
-15 -19 -63 0
-15 -19 -64 0
-15 -19 -67 0
-15 -19 -69 0
-15 -19 -70 0
-15 -21 -22 0
-15 -21 -25 0
-15 -21 -27 0
-15 -21 -28 0
-15 -21 -52 0
-15 -21 -57 0
-15 -21 -58 0
-15 -21 -61 0
-15 -21 -63 0
-15 -21 -64 0
-15 -21 -67 0
-15 -21 -69 0
-15 -21 -70 0
-15 -22 -25 0
-15 -22 -27 0
-15 -22 -28 0
-15 -22 -52 0
-15 -22 -57 0
-15 -22 -58 0
-15 -22 -61 0
-15 -22 -63 0
-15 -22 -64 0
-15 -22 -67 0
-15 -22 -69 0
-15 -22 -70 0
-15 -25 -27 0
-15 -25 -28 0
-15 -25 -52 0
-15 -25 -57 0
-15 -25 -58 0
-15 -25 -61 0
-15 -25 -63 0
-15 -25 -64 0
-15 -25 -67 0
-15 -25 -69 0
-15 -25 -70 0
-15 -27 -28 0
-15 -27 -52 0
-15 -27 -57 0
-15 -27 -58 0
-15 -27 -61 0
-15 -27 -63 0
-15 -27 -64 0
-15 -27 -67 0
-15 -27 -69 0
-15 -27 -70 0
-15 -28 -52 0
-15 -28 -57 0
-15 -28 -58 0
-15 -28 -61 0
-15 -28 -63 0
-15 -28 -64 0
-15 -28 -67 0
-15 -28 -69 0
-15 -28 -70 0
-15 -52 -57 0
-15 -52 -58 0
-15 -52 -61 0
-15 -52 -63 0
-15 -52 -64 0
-15 -52 -67 0
-15 -52 -69 0
-15 -52 -70 0
-15 -57 -58 0
-15 -57 -61 0
-15 -57 -63 0
-15 -57 -64 0
-15 -57 -67 0
-15 -57 -69 0
-15 -57 -70 0
-15 -58 -61 0
-15 -58 -63 0
-15 -58 -64 0
-15 -58 -67 0
-15 -58 -69 0
-15 -58 -70 0
-15 -61 -63 0
-15 -61 -64 0
-15 -61 -67 0
-15 -61 -69 0
-15 -61 -70 0
-15 -63 -64 0
-15 -63 -67 0
-15 -63 -69 0
-15 -63 -70 0
-15 -64 -67 0
-15 -64 -69 0
-15 -64 -70 0
-15 -67 -69 0
-15 -67 -70 0
-15 -69 -70 0
-16 -19 -21 0
-16 -19 -22 0
-16 -19 -25 0
-16 -19 -27 0
-16 -19 -28 0
-16 -19 -52 0
-16 -19 -57 0
-16 -19 -58 0
-16 -19 -61 0
-16 -19 -63 0
-16 -19 -64 0
-16 -19 -67 0
-16 -19 -69 0
-16 -19 -70 0
-16 -21 -22 0
-16 -21 -25 0
-16 -21 -27 0
-16 -21 -28 0
-16 -21 -52 0
-16 -21 -57 0
-16 -21 -58 0
-16 -21 -61 0
-16 -21 -63 0
-16 -21 -64 0
-16 -21 -67 0
-16 -21 -69 0
-16 -21 -70 0
-16 -22 -25 0
-16 -22 -27 0
-16 -22 -28 0
-16 -22 -52 0
-16 -22 -57 0
-16 -22 -58 0
-16 -22 -61 0
-16 -22 -63 0
-16 -22 -64 0
-16 -22 -67 0
-16 -22 -69 0
-16 -22 -70 0
-16 -25 -27 0
-16 -25 -28 0
-16 -25 -52 0
-16 -25 -57 0
-16 -25 -58 0
-16 -25 -61 0
-16 -25 -63 0
-16 -25 -64 0
-16 -25 -67 0
-16 -25 -69 0
-16 -25 -70 0
-16 -27 -28 0
-16 -27 -52 0
-16 -27 -57 0
-16 -27 -58 0
-16 -27 -61 0
-16 -27 -63 0
-16 -27 -64 0
-16 -27 -67 0
-16 -27 -69 0
-16 -27 -70 0
-16 -28 -52 0
-16 -28 -57 0
-16 -28 -58 0
-16 -28 -61 0
-16 -28 -63 0
-16 -28 -64 0
-16 -28 -67 0
-16 -28 -69 0
-16 -28 -70 0
-16 -52 -57 0
-16 -52 -58 0
-16 -52 -61 0
-16 -52 -63 0
-16 -52 -64 0
-16 -52 -67 0
-16 -52 -69 0
-16 -52 -70 0
-16 -57 -58 0
-16 -57 -61 0
-16 -57 -63 0
-16 -57 -64 0
-16 -57 -67 0
-16 -57 -69 0
-16 -57 -70 0
-16 -58 -61 0
-16 -58 -63 0
-16 -58 -64 0
-16 -58 -67 0
-16 -58 -69 0
-16 -58 -70 0
-16 -61 -63 0
-16 -61 -64 0
-16 -61 -67 0
-16 -61 -69 0
-16 -61 -70 0
-16 -63 -64 0
-16 -63 -67 0
-16 -63 -69 0
-16 -63 -70 0
-16 -64 -67 0
-16 -64 -69 0
-16 -64 -70 0
-16 -67 -69 0
-16 -67 -70 0
-16 -69 -70 0
-19 -21 -22 0
-19 -21 -25 0
-19 -21 -27 0
-19 -21 -28 0
-19 -21 -52 0
-19 -21 -57 0
-19 -21 -58 0
-19 -21 -61 0
-19 -21 -63 0
-19 -21 -64 0
-19 -21 -67 0
-19 -21 -69 0
-19 -21 -70 0
-19 -22 -25 0
-19 -22 -27 0
-19 -22 -28 0
-19 -22 -52 0
-19 -22 -57 0
-19 -22 -58 0
-19 -22 -61 0
-19 -22 -63 0
-19 -22 -64 0
-19 -22 -67 0
-19 -22 -69 0
-19 -22 -70 0
-19 -25 -27 0
-19 -25 -28 0
-19 -25 -52 0
-19 -25 -57 0
-19 -25 -58 0
-19 -25 -61 0
-19 -25 -63 0
-19 -25 -64 0
-19 -25 -67 0
-19 -25 -69 0
-19 -25 -70 0
-19 -27 -28 0
-19 -27 -52 0
-19 -27 -57 0
-19 -27 -58 0
-19 -27 -61 0
-19 -27 -63 0
-19 -27 -64 0
-19 -27 -67 0
-19 -27 -69 0
-19 -27 -70 0
-19 -28 -52 0
-19 -28 -57 0
-19 -28 -58 0
-19 -28 -61 0
-19 -28 -63 0
-19 -28 -64 0
-19 -28 -67 0
-19 -28 -69 0
-19 -28 -70 0
-19 -52 -57 0
-19 -52 -58 0
-19 -52 -61 0
-19 -52 -63 0
-19 -52 -64 0
-19 -52 -67 0
-19 -52 -69 0
-19 -52 -70 0
-19 -57 -58 0
-19 -57 -61 0
-19 -57 -63 0
-19 -57 -64 0
-19 -57 -67 0
-19 -57 -69 0
-19 -57 -70 0
-19 -58 -61 0
-19 -58 -63 0
-19 -58 -64 0
-19 -58 -67 0
-19 -58 -69 0
-19 -58 -70 0
-19 -61 -63 0
-19 -61 -64 0
-19 -61 -67 0
-19 -61 -69 0
-19 -61 -70 0
-19 -63 -64 0
-19 -63 -67 0
-19 -63 -69 0
-19 -63 -70 0
-19 -64 -67 0
-19 -64 -69 0
-19 -64 -70 0
-19 -67 -69 0
-19 -67 -70 0
-19 -69 -70 0
-21 -22 -25 0
-21 -22 -27 0
-21 -22 -28 0
-21 -22 -52 0
-21 -22 -57 0
-21 -22 -58 0
-21 -22 -61 0
-21 -22 -63 0
-21 -22 -64 0
-21 -22 -67 0
-21 -22 -69 0
-21 -22 -70 0
-21 -25 -27 0
-21 -25 -28 0
-21 -25 -52 0
-21 -25 -57 0
-21 -25 -58 0
-21 -25 -61 0
-21 -25 -63 0
-21 -25 -64 0
-21 -25 -67 0
-21 -25 -69 0
-21 -25 -70 0
-21 -27 -28 0
-21 -27 -52 0
-21 -27 -57 0
-21 -27 -58 0
-21 -27 -61 0
-21 -27 -63 0
-21 -27 -64 0
-21 -27 -67 0
-21 -27 -69 0
-21 -27 -70 0
-21 -28 -52 0
-21 -28 -57 0
-21 -28 -58 0
-21 -28 -61 0
-21 -28 -63 0
-21 -28 -64 0
-21 -28 -67 0
-21 -28 -69 0
-21 -28 -70 0
-21 -52 -57 0
-21 -52 -58 0
-21 -52 -61 0
-21 -52 -63 0
-21 -52 -64 0
-21 -52 -67 0
-21 -52 -69 0
-21 -52 -70 0
-21 -57 -58 0
-21 -57 -61 0
-21 -57 -63 0
-21 -57 -64 0
-21 -57 -67 0
-21 -57 -69 0
-21 -57 -70 0
-21 -58 -61 0
-21 -58 -63 0
-21 -58 -64 0
-21 -58 -67 0
-21 -58 -69 0
-21 -58 -70 0
-21 -61 -63 0
-21 -61 -64 0
-21 -61 -67 0
-21 -61 -69 0
-21 -61 -70 0
-21 -63 -64 0
-21 -63 -67 0
-21 -63 -69 0
-21 -63 -70 0
-21 -64 -67 0
-21 -64 -69 0
-21 -64 -70 0
-21 -67 -69 0
-21 -67 -70 0
-21 -69 -70 0
-22 -25 -27 0
-22 -25 -28 0
-22 -25 -52 0
-22 -25 -57 0
-22 -25 -58 0
-22 -25 -61 0
-22 -25 -63 0
-22 -25 -64 0
-22 -25 -67 0
-22 -25 -69 0
-22 -25 -70 0
-22 -27 -28 0
-22 -27 -52 0
-22 -27 -57 0
-22 -27 -58 0
-22 -27 -61 0
-22 -27 -63 0
-22 -27 -64 0
-22 -27 -67 0
-22 -27 -69 0
-22 -27 -70 0
-22 -28 -52 0
-22 -28 -57 0
-22 -28 -58 0
-22 -28 -61 0
-22 -28 -63 0
-22 -28 -64 0
-22 -28 -67 0
-22 -28 -69 0
-22 -28 -70 0
-22 -52 -57 0
-22 -52 -58 0
-22 -52 -61 0
-22 -52 -63 0
-22 -52 -64 0
-22 -52 -67 0
-22 -52 -69 0
-22 -52 -70 0
-22 -57 -58 0
-22 -57 -61 0
-22 -57 -63 0
-22 -57 -64 0
-22 -57 -67 0
-22 -57 -69 0
-22 -57 -70 0
-22 -58 -61 0
-22 -58 -63 0
-22 -58 -64 0
-22 -58 -67 0
-22 -58 -69 0
-22 -58 -70 0
-22 -61 -63 0
-22 -61 -64 0
-22 -61 -67 0
-22 -61 -69 0
-22 -61 -70 0
-22 -63 -64 0
-22 -63 -67 0
-22 -63 -69 0
-22 -63 -70 0
-22 -64 -67 0
-22 -64 -69 0
-22 -64 -70 0
-22 -67 -69 0
-22 -67 -70 0
-22 -69 -70 0
-25 -27 -28 0
-25 -27 -52 0
-25 -27 -57 0
-25 -27 -58 0
-25 -27 -61 0
-25 -27 -63 0
-25 -27 -64 0
-25 -27 -67 0
-25 -27 -69 0
-25 -27 -70 0
-25 -28 -52 0
-25 -28 -57 0
-25 -28 -58 0
-25 -28 -61 0
-25 -28 -63 0
-25 -28 -64 0
-25 -28 -67 0
-25 -28 -69 0
-25 -28 -70 0
-25 -52 -57 0
-25 -52 -58 0
-25 -52 -61 0
-25 -52 -63 0
-25 -52 -64 0
-25 -52 -67 0
-25 -52 -69 0
-25 -52 -70 0
-25 -57 -58 0
-25 -57 -61 0
-25 -57 -63 0
-25 -57 -64 0
-25 -57 -67 0
-25 -57 -69 0
-25 -57 -70 0
-25 -58 -61 0
-25 -58 -63 0
-25 -58 -64 0
-25 -58 -67 0
-25 -58 -69 0
-25 -58 -70 0
-25 -61 -63 0
-25 -61 -64 0
-25 -61 -67 0
-25 -61 -69 0
-25 -61 -70 0
-25 -63 -64 0
-25 -63 -67 0
-25 -63 -69 0
-25 -63 -70 0
-25 -64 -67 0
-25 -64 -69 0
-25 -64 -70 0
-25 -67 -69 0
-25 -67 -70 0
-25 -69 -70 0
-27 -28 -52 0
-27 -28 -57 0
-27 -28 -58 0
-27 -28 -61 0
-27 -28 -63 0
-27 -28 -64 0
-27 -28 -67 0
-27 -28 -69 0
-27 -28 -70 0
-27 -52 -57 0
-27 -52 -58 0
-27 -52 -61 0
-27 -52 -63 0
-27 -52 -64 0
-27 -52 -67 0
-27 -52 -69 0
-27 -52 -70 0
-27 -57 -58 0
-27 -57 -61 0
-27 -57 -63 0
-27 -57 -64 0
-27 -57 -67 0
-27 -57 -69 0
-27 -57 -70 0
-27 -58 -61 0
-27 -58 -63 0
-27 -58 -64 0
-27 -58 -67 0
-27 -58 -69 0
-27 -58 -70 0
-27 -61 -63 0
-27 -61 -64 0
-27 -61 -67 0
-27 -61 -69 0
-27 -61 -70 0
-27 -63 -64 0
-27 -63 -67 0
-27 -63 -69 0
-27 -63 -70 0
-27 -64 -67 0
-27 -64 -69 0
-27 -64 -70 0
-27 -67 -69 0
-27 -67 -70 0
-27 -69 -70 0
-28 -52 -57 0
-28 -52 -58 0
-28 -52 -61 0
-28 -52 -63 0
-28 -52 -64 0
-28 -52 -67 0
-28 -52 -69 0
-28 -52 -70 0
-28 -57 -58 0
-28 -57 -61 0
-28 -57 -63 0
-28 -57 -64 0
-28 -57 -67 0
-28 -57 -69 0
-28 -57 -70 0
-28 -58 -61 0
-28 -58 -63 0
-28 -58 -64 0
-28 -58 -67 0
-28 -58 -69 0
-28 -58 -70 0
-28 -61 -63 0
-28 -61 -64 0
-28 -61 -67 0
-28 -61 -69 0
-28 -61 -70 0
-28 -63 -64 0
-28 -63 -67 0
-28 -63 -69 0
-28 -63 -70 0
-28 -64 -67 0
-28 -64 -69 0
-28 -64 -70 0
-28 -67 -69 0
-28 -67 -70 0
-28 -69 -70 0
-52 -57 -58 0
-52 -57 -61 0
-52 -57 -63 0
-52 -57 -64 0
-52 -57 -67 0
-52 -57 -69 0
-52 -57 -70 0
-52 -58 -61 0
-52 -58 -63 0
-52 -58 -64 0
-52 -58 -67 0
-52 -58 -69 0
-52 -58 -70 0
-52 -61 -63 0
-52 -61 -64 0
-52 -61 -67 0
-52 -61 -69 0
-52 -61 -70 0
-52 -63 -64 0
-52 -63 -67 0
-52 -63 -69 0
-52 -63 -70 0
-52 -64 -67 0
-52 -64 -69 0
-52 -64 -70 0
-52 -67 -69 0
-52 -67 -70 0
-52 -69 -70 0
-57 -58 -61 0
-57 -58 -63 0
-57 -58 -64 0
-57 -58 -67 0
-57 -58 -69 0
-57 -58 -70 0
-57 -61 -63 0
-57 -61 -64 0
-57 -61 -67 0
-57 -61 -69 0
-57 -61 -70 0
-57 -63 -64 0
-57 -63 -67 0
-57 -63 -69 0
-57 -63 -70 0
-57 -64 -67 0
-57 -64 -69 0
-57 -64 -70 0
-57 -67 -69 0
-57 -67 -70 0
-57 -69 -70 0
-58 -61 -63 0
-58 -61 -64 0
-58 -61 -67 0
-58 -61 -69 0
-58 -61 -70 0
-58 -63 -64 0
-58 -63 -67 0
-58 -63 -69 0
-58 -63 -70 0
-58 -64 -67 0
-58 -64 -69 0
-58 -64 -70 0
-58 -67 -69 0
-58 -67 -70 0
-58 -69 -70 0
-61 -63 -64 0
-61 -63 -67 0
-61 -63 -69 0
-61 -63 -70 0
-61 -64 -67 0
-61 -64 -69 0
-61 -64 -70 0
-61 -67 -69 0
-61 -67 -70 0
-61 -69 -70 0
-63 -64 -67 0
-63 -64 -69 0
-63 -64 -70 0
-63 -67 -69 0
-63 -67 -70 0
-63 -69 -70 0
-64 -67 -69 0
-64 -67 -70 0
-64 -69 -70 0
-67 -69 -70 0
10 15 16 19 21 22 25 27 28 52 57 58 61 63 64 67 69 0
10 15 16 19 21 22 25 27 28 52 57 58 61 63 64 67 70 0
10 15 16 19 21 22 25 27 28 52 57 58 61 63 64 69 70 0
10 15 16 19 21 22 25 27 28 52 57 58 61 63 67 69 70 0
10 15 16 19 21 22 25 27 28 52 57 58 61 64 67 69 70 0
10 15 16 19 21 22 25 27 28 52 57 58 63 64 67 69 70 0
10 15 16 19 21 22 25 27 28 52 57 61 63 64 67 69 70 0
10 15 16 19 21 22 25 27 28 52 58 61 63 64 67 69 70 0
10 15 16 19 21 22 25 27 28 57 58 61 63 64 67 69 70 0
10 15 16 19 21 22 25 27 52 57 58 61 63 64 67 69 70 0
10 15 16 19 21 22 25 28 52 57 58 61 63 64 67 69 70 0
10 15 16 19 21 22 27 28 52 57 58 61 63 64 67 69 70 0
10 15 16 19 21 25 27 28 52 57 58 61 63 64 67 69 70 0
10 15 16 19 22 25 27 28 52 57 58 61 63 64 67 69 70 0
10 15 16 21 22 25 27 28 52 57 58 61 63 64 67 69 70 0
10 15 19 21 22 25 27 28 52 57 58 61 63 64 67 69 70 0
10 16 19 21 22 25 27 28 52 57 58 61 63 64 67 69 70 0
15 16 19 21 22 25 27 28 52 57 58 61 63 64 67 69 70 0
15 0
-64 0
-16 0
-58 0
-5 -10 0
-5 -11 0
-5 -17 0
-5 -19 0
-5 -21 0
-5 -22 0
-5 -23 0
-5 -25 0
-5 -27 0
-5 -28 0
-5 -29 0
-5 -47 0
-5 -52 0
-5 -53 0
-5 -59 0
-5 -61 0
-5 -63 0
-5 -64 0
-5 -65 0
-5 -67 0
-5 -69 0
-5 -70 0
-5 -71 0
-10 -11 0
-10 -17 0
-10 -19 0
-10 -21 0
-10 -22 0
-10 -23 0
-10 -25 0
-10 -27 0
-10 -28 0
-10 -29 0
-10 -47 0
-10 -52 0
-10 -53 0
-10 -59 0
-10 -61 0
-10 -63 0
-10 -64 0
-10 -65 0
-10 -67 0
-10 -69 0
-10 -70 0
-10 -71 0
-11 -17 0
-11 -19 0
-11 -21 0
-11 -22 0
-11 -23 0
-11 -25 0
-11 -27 0
-11 -28 0
-11 -29 0
-11 -47 0
-11 -52 0
-11 -53 0
-11 -59 0
-11 -61 0
-11 -63 0
-11 -64 0
-11 -65 0
-11 -67 0
-11 -69 0
-11 -70 0
-11 -71 0
-17 -19 0
-17 -21 0
-17 -22 0
-17 -23 0
-17 -25 0
-17 -27 0
-17 -28 0
-17 -29 0
-17 -47 0
-17 -52 0
-17 -53 0
-17 -59 0
-17 -61 0
-17 -63 0
-17 -64 0
-17 -65 0
-17 -67 0
-17 -69 0
-17 -70 0
-17 -71 0
-19 -21 0
-19 -22 0
-19 -23 0
-19 -25 0
-19 -27 0
-19 -28 0
-19 -29 0
-19 -47 0
-19 -52 0
-19 -53 0
-19 -59 0
-19 -61 0
-19 -63 0
-19 -64 0
-19 -65 0
-19 -67 0
-19 -69 0
-19 -70 0
-19 -71 0
-21 -22 0
-21 -23 0
-21 -25 0
-21 -27 0
-21 -28 0
-21 -29 0
-21 -47 0
-21 -52 0
-21 -53 0
-21 -59 0
-21 -61 0
-21 -63 0
-21 -64 0
-21 -65 0
-21 -67 0
-21 -69 0
-21 -70 0
-21 -71 0
-22 -23 0
-22 -25 0
-22 -27 0
-22 -28 0
-22 -29 0
-22 -47 0
-22 -52 0
-22 -53 0
-22 -59 0
-22 -61 0
-22 -63 0
-22 -64 0
-22 -65 0
-22 -67 0
-22 -69 0
-22 -70 0
-22 -71 0
-23 -25 0
-23 -27 0
-23 -28 0
-23 -29 0
-23 -47 0
-23 -52 0
-23 -53 0
-23 -59 0
-23 -61 0
-23 -63 0
-23 -64 0
-23 -65 0
-23 -67 0
-23 -69 0
-23 -70 0
-23 -71 0
-25 -27 0
-25 -28 0
-25 -29 0
-25 -47 0
-25 -52 0
-25 -53 0
-25 -59 0
-25 -61 0
-25 -63 0
-25 -64 0
-25 -65 0
-25 -67 0
-25 -69 0
-25 -70 0
-25 -71 0
-27 -28 0
-27 -29 0
-27 -47 0
-27 -52 0
-27 -53 0
-27 -59 0
-27 -61 0
-27 -63 0
-27 -64 0
-27 -65 0
-27 -67 0
-27 -69 0
-27 -70 0
-27 -71 0
-28 -29 0
-28 -47 0
-28 -52 0
-28 -53 0
-28 -59 0
-28 -61 0
-28 -63 0
-28 -64 0
-28 -65 0
-28 -67 0
-28 -69 0
-28 -70 0
-28 -71 0
-29 -47 0
-29 -52 0
-29 -53 0
-29 -59 0
-29 -61 0
-29 -63 0
-29 -64 0
-29 -65 0
-29 -67 0
-29 -69 0
-29 -70 0
-29 -71 0
-47 -52 0
-47 -53 0
-47 -59 0
-47 -61 0
-47 -63 0
-47 -64 0
-47 -65 0
-47 -67 0
-47 -69 0
-47 -70 0
-47 -71 0
-52 -53 0
-52 -59 0
-52 -61 0
-52 -63 0
-52 -64 0
-52 -65 0
-52 -67 0
-52 -69 0
-52 -70 0
-52 -71 0
-53 -59 0
-53 -61 0
-53 -63 0
-53 -64 0
-53 -65 0
-53 -67 0
-53 -69 0
-53 -70 0
-53 -71 0
-59 -61 0
-59 -63 0
-59 -64 0
-59 -65 0
-59 -67 0
-59 -69 0
-59 -70 0
-59 -71 0
-61 -63 0
-61 -64 0
-61 -65 0
-61 -67 0
-61 -69 0
-61 -70 0
-61 -71 0
-63 -64 0
-63 -65 0
-63 -67 0
-63 -69 0
-63 -70 0
-63 -71 0
-64 -65 0
-64 -67 0
-64 -69 0
-64 -70 0
-64 -71 0
-65 -67 0
-65 -69 0
-65 -70 0
-65 -71 0
-67 -69 0
-67 -70 0
-67 -71 0
-69 -70 0
-69 -71 0
-70 -71 0
5 10 11 17 19 21 22 23 25 27 28 29 47 52 53 59 61 63 64 65 67 69 70 71 0
63 0
-70 0
-52 0
-59 0
-61 0
-10 0
-19 0
-22 0
-25 0
-27 0
-28 0
-31 0
-33 0
-34 0
-52 0
-61 0
-64 0
-67 0
-69 0
-70 0
-73 0
-75 0
-76 0
-19 0
-61 0
-67 0
-69 0
-73 0
-22 -25 0
-22 -27 0
-22 -28 0
-22 -31 0
-22 -33 0
-22 -34 0
-22 -37 0
-22 -38 0
-22 -39 0
-22 -40 0
-22 -64 0
-22 -67 0
-22 -69 0
-22 -70 0
-22 -73 0
-22 -75 0
-22 -76 0
-22 -79 0
-22 -80 0
-22 -81 0
-22 -82 0
-25 -27 0
-25 -28 0
-25 -31 0
-25 -33 0
-25 -34 0
-25 -37 0
-25 -38 0
-25 -39 0
-25 -40 0
-25 -64 0
-25 -67 0
-25 -69 0
-25 -70 0
-25 -73 0
-25 -75 0
-25 -76 0
-25 -79 0
-25 -80 0
-25 -81 0
-25 -82 0
-27 -28 0
-27 -31 0
-27 -33 0
-27 -34 0
-27 -37 0
-27 -38 0
-27 -39 0
-27 -40 0
-27 -64 0
-27 -67 0
-27 -69 0
-27 -70 0
-27 -73 0
-27 -75 0
-27 -76 0
-27 -79 0
-27 -80 0
-27 -81 0
-27 -82 0
-28 -31 0
-28 -33 0
-28 -34 0
-28 -37 0
-28 -38 0
-28 -39 0
-28 -40 0
-28 -64 0
-28 -67 0
-28 -69 0
-28 -70 0
-28 -73 0
-28 -75 0
-28 -76 0
-28 -79 0
-28 -80 0
-28 -81 0
-28 -82 0
-31 -33 0
-31 -34 0
-31 -37 0
-31 -38 0
-31 -39 0
-31 -40 0
-31 -64 0
-31 -67 0
-31 -69 0
-31 -70 0
-31 -73 0
-31 -75 0
-31 -76 0
-31 -79 0
-31 -80 0
-31 -81 0
-31 -82 0
-33 -34 0
-33 -37 0
-33 -38 0
-33 -39 0
-33 -40 0
-33 -64 0
-33 -67 0
-33 -69 0
-33 -70 0
-33 -73 0
-33 -75 0
-33 -76 0
-33 -79 0
-33 -80 0
-33 -81 0
-33 -82 0
-34 -37 0
-34 -38 0
-34 -39 0
-34 -40 0
-34 -64 0
-34 -67 0
-34 -69 0
-34 -70 0
-34 -73 0
-34 -75 0
-34 -76 0
-34 -79 0
-34 -80 0
-34 -81 0
-34 -82 0
-37 -38 0
-37 -39 0
-37 -40 0
-37 -64 0
-37 -67 0
-37 -69 0
-37 -70 0
-37 -73 0
-37 -75 0
-37 -76 0
-37 -79 0
-37 -80 0
-37 -81 0
-37 -82 0
-38 -39 0
-38 -40 0
-38 -64 0
-38 -67 0
-38 -69 0
-38 -70 0
-38 -73 0
-38 -75 0
-38 -76 0
-38 -79 0
-38 -80 0
-38 -81 0
-38 -82 0
-39 -40 0
-39 -64 0
-39 -67 0
-39 -69 0
-39 -70 0
-39 -73 0
-39 -75 0
-39 -76 0
-39 -79 0
-39 -80 0
-39 -81 0
-39 -82 0
-40 -64 0
-40 -67 0
-40 -69 0
-40 -70 0
-40 -73 0
-40 -75 0
-40 -76 0
-40 -79 0
-40 -80 0
-40 -81 0
-40 -82 0
-64 -67 0
-64 -69 0
-64 -70 0
-64 -73 0
-64 -75 0
-64 -76 0
-64 -79 0
-64 -80 0
-64 -81 0
-64 -82 0
-67 -69 0
-67 -70 0
-67 -73 0
-67 -75 0
-67 -76 0
-67 -79 0
-67 -80 0
-67 -81 0
-67 -82 0
-69 -70 0
-69 -73 0
-69 -75 0
-69 -76 0
-69 -79 0
-69 -80 0
-69 -81 0
-69 -82 0
-70 -73 0
-70 -75 0
-70 -76 0
-70 -79 0
-70 -80 0
-70 -81 0
-70 -82 0
-73 -75 0
-73 -76 0
-73 -79 0
-73 -80 0
-73 -81 0
-73 -82 0
-75 -76 0
-75 -79 0
-75 -80 0
-75 -81 0
-75 -82 0
-76 -79 0
-76 -80 0
-76 -81 0
-76 -82 0
-79 -80 0
-79 -81 0
-79 -82 0
-80 -81 0
-80 -82 0
-81 -82 0
22 25 27 28 31 33 34 37 38 39 40 64 67 69 70 73 75 76 79 80 81 82 0
-25 0
-67 0
-75 0
-71 0
-38 0
-80 0
-22 -27 0
-22 -28 0
-22 -31 0
-22 -33 0
-22 -34 0
-22 -37 0
-22 -39 0
-22 -40 0
-22 -64 0
-22 -69 0
-22 -70 0
-22 -73 0
-22 -75 0
-22 -76 0
-22 -79 0
-22 -81 0
-22 -82 0
-27 -28 0
-27 -31 0
-27 -33 0
-27 -34 0
-27 -37 0
-27 -39 0
-27 -40 0
-27 -64 0
-27 -69 0
-27 -70 0
-27 -73 0
-27 -75 0
-27 -76 0
-27 -79 0
-27 -81 0
-27 -82 0
-28 -31 0
-28 -33 0
-28 -34 0
-28 -37 0
-28 -39 0
-28 -40 0
-28 -64 0
-28 -69 0
-28 -70 0
-28 -73 0
-28 -75 0
-28 -76 0
-28 -79 0
-28 -81 0
-28 -82 0
-31 -33 0
-31 -34 0
-31 -37 0
-31 -39 0
-31 -40 0
-31 -64 0
-31 -69 0
-31 -70 0
-31 -73 0
-31 -75 0
-31 -76 0
-31 -79 0
-31 -81 0
-31 -82 0
-33 -34 0
-33 -37 0
-33 -39 0
-33 -40 0
-33 -64 0
-33 -69 0
-33 -70 0
-33 -73 0
-33 -75 0
-33 -76 0
-33 -79 0
-33 -81 0
-33 -82 0
-34 -37 0
-34 -39 0
-34 -40 0
-34 -64 0
-34 -69 0
-34 -70 0
-34 -73 0
-34 -75 0
-34 -76 0
-34 -79 0
-34 -81 0
-34 -82 0
-37 -39 0
-37 -40 0
-37 -64 0
-37 -69 0
-37 -70 0
-37 -73 0
-37 -75 0
-37 -76 0
-37 -79 0
-37 -81 0
-37 -82 0
-39 -40 0
-39 -64 0
-39 -69 0
-39 -70 0
-39 -73 0
-39 -75 0
-39 -76 0
-39 -79 0
-39 -81 0
-39 -82 0
-40 -64 0
-40 -69 0
-40 -70 0
-40 -73 0
-40 -75 0
-40 -76 0
-40 -79 0
-40 -81 0
-40 -82 0
-64 -69 0
-64 -70 0
-64 -73 0
-64 -75 0
-64 -76 0
-64 -79 0
-64 -81 0
-64 -82 0
-69 -70 0
-69 -73 0
-69 -75 0
-69 -76 0
-69 -79 0
-69 -81 0
-69 -82 0
-70 -73 0
-70 -75 0
-70 -76 0
-70 -79 0
-70 -81 0
-70 -82 0
-73 -75 0
-73 -76 0
-73 -79 0
-73 -81 0
-73 -82 0
-75 -76 0
-75 -79 0
-75 -81 0
-75 -82 0
-76 -79 0
-76 -81 0
-76 -82 0
-79 -81 0
-79 -82 0
-81 -82 0
22 27 28 31 33 34 37 39 40 64 69 70 73 75 76 79 81 82 0
-31 0
-73 0
-76 0
-27 0
-33 0
-37 0
-39 0
-69 0
-75 0
-79 0
-81 0
-37 0
-79 0
-81 0
-27 0
-33 0
-39 0
-69 0
-75 0
-81 0
-39 0
-81 0
-27 -28 0
-27 -33 0
-27 -34 0
-27 -40 0
-27 -69 0
-27 -70 0
-27 -75 0
-27 -76 0
-27 -82 0
-28 -33 0
-28 -34 0
-28 -40 0
-28 -69 0
-28 -70 0
-28 -75 0
-28 -76 0
-28 -82 0
-33 -34 0
-33 -40 0
-33 -69 0
-33 -70 0
-33 -75 0
-33 -76 0
-33 -82 0
-34 -40 0
-34 -69 0
-34 -70 0
-34 -75 0
-34 -76 0
-34 -82 0
-40 -69 0
-40 -70 0
-40 -75 0
-40 -76 0
-40 -82 0
-69 -70 0
-69 -75 0
-69 -76 0
-69 -82 0
-70 -75 0
-70 -76 0
-70 -82 0
-75 -76 0
-75 -82 0
-76 -82 0
27 28 33 34 40 69 70 75 76 82 0
82 0
-27 0
-28 0
-29 0
-33 0
-34 0
-35 0
-41 0
-69 0
-70 0
-71 0
-75 0
-76 0
-77 0
-83 0
-33 0
-75 0
-27 0
-69 0
-28 0
-70 0
-29 0
-71 0
-17 0
-59 0
-18 0
-60 0
-5 0
-6 0
-10 0
-11 0
-12 0
-22 0
-23 0
-24 0
-30 0
-47 0
-48 0
-52 0
-53 0
-54 0
-64 0
-65 0
-66 0
-72 0
-22 0
-64 0
-10 0
-52 0
-65 0
-53 0
-47 0
-54 0
-5 0
-6 0
-11 0
-12 0
-23 0
-24 0
-30 0
-47 0
-48 0
-53 0
-54 0
-65 0
-66 0
-72 0
-11 0
-53 0
-5 0
-47 0
-23 0
-65 0
-35 0
-77 0
-66 0
-6 0
-12 0
-24 0
-48 0
-54 0
-66 0
-12 0
-54 0
-48 0
-6 0
-24 0
-48 0
-66 0
-6 0
-48 0
-41 0
-83 0
-24 -30 0
-24 -34 0
-24 -36 0
-24 -66 0
-24 -72 0
-24 -76 0
-24 -78 0
-30 -34 0
-30 -36 0
-30 -66 0
-30 -72 0
-30 -76 0
-30 -78 0
-34 -36 0
-34 -66 0
-34 -72 0
-34 -76 0
-34 -78 0
-36 -66 0
-36 -72 0
-36 -76 0
-36 -78 0
-66 -72 0
-66 -76 0
-66 -78 0
-72 -76 0
-72 -78 0
-76 -78 0
24 30 34 36 66 72 76 78 0
-24 0
-66 0
-72 0
78 0
